shell rm -rf dump
shell mkdir dump

# lammps bubble
units metal        
dimension 3        
boundary p p p     
atom_style atomic  

restart 1000 ./dump/rst.1 ./dump/rst.2

variable xhi equal 150.54
variable yhi equal 150.54
variable zhi equal 150.54

variable xlo equal -0.98
variable ylo equal -0.98
variable zlo equal -20.98

variable xl equal ${xhi}-${xlo}
variable yl equal ${yhi}-${ylo}
variable zl equal ${zhi}-${xlo}

variable half_xl equal 0.5*${xl}
variable half_yl equal 0.5*${yl}
variable half_zl equal 0.5*${zl}

region box block  ${xlo} ${xhi}  ${ylo} ${yhi}  ${zlo} ${zhi} units box

create_box 3 box

mass 1 39.94 
mass 2 196
mass 3 196

variable r equal 10
variable R equal 13

region q3 sphere    ${half_xl} ${half_yl} ${half_zl}  ${r}  units box
region q4 sphere    ${half_xl} ${half_yl} ${half_zl}  ${R}  units box  # the region to be deleted

lattice fcc 5.81
region q5    block 0 ${xhi} 0 ${yhi}   0 ${zhi}  units box
create_atoms 1 random 100000 999999 q5 
group liquid region q5

delete_atoms region q4 compress yes
reset_ids

lattice     fcc 4.07 orient x 1 0 0 orient y 0 1 0 orient z 0 0 1

create_atoms 2 region q3
group particle   region q3

lattice     fcc 4.07 orient x 1 0 0 orient y 0 1 0 orient z 0 0 1


variable lenwall equal -5 

region q1    block 0 ${xhi} 0 ${yhi}   ${zlo} ${lenwall} units box
create_atoms 3 region q1 
group wall region q1

# # potentials
pair_style hybrid lj/cut 13.5 morse 12
pair_coeff 1 1 lj/cut 	0.0104 3.40
pair_coeff 1 2 lj/cut 	0.02   3.21
pair_coeff 1 3 lj/cut 	0.02   3.21
pair_coeff 2 2 morse  	0.475  1.583  3.0242  12 
pair_coeff 2 3 lj/cut 	0.475  3.0242
pair_coeff 3 3 morse  	0.475  1.583  3.0242  12 

neighbor 2.0 bin
neigh_modify every 10 delay 0 check yes

timestep 0.005

write_data ./dump/first.data

minimize 1.0e-4 1.0e-6 100 1000

velocity all create 90 9081123 dist gaussian  units box

fix 0  particle spring/self 2.925
# ########################################
compute ltemp liquid   temp
compute ptemp particle temp
compute wtemp wall      temp


fix				 NVT all nvt temp  90 90 0.2
thermo           100
thermo_style custom step c_ltemp c_ptemp c_wtemp etotal ke pe  press  pxx pyy pzz   lx ly lz 
dump             1 all custom 1000  ./dump/nvt.lammpstrj id type x y z vx vy vz fx fy fz 
run				 200000
unfix   	     NVT
undump           1 
write_restart    ./dump/rst.nvt
write_data       ./dump/data.nvt

fix		         NPT all npt temp  90 90 0.2 iso 1 1 50.0
thermo           100
thermo_style custom step c_ltemp c_ptemp c_wtemp etotal ke pe  press pxx pyy pzz  lx ly lz 
dump             2 all custom 1000  ./dump/npt.lammpstrj id type x y z vx vy vz fx fy fz 
run				 400000
unfix            NPT
undump           2
write_restart    ./dump/rst.npt
write_data       ./dump/data.npt


fix				 NVE all nve
thermo           100
thermo_style custom step c_ltemp c_ptemp c_wtemp etotal ke pe  press  pxx pyy pzz   lx ly lz 
dump             3 all custom 1000  ./dump/nve.lammpstrj id type x y z vx vy vz fx fy fz 
# run				 100000
run				 100000
unfix            NVE
undump           3
write_restart    ./dump/rst.nve
write_data       ./dump/data.nve

